* SDPA sparse format data
* File name = meanvar.dat-s
* mDim =  35, nBlock =  3
* size of bVect = 1 *  35
* size of sparseMatrix =  124 * 5
 35
  3
-4 -42  8 
   0.0000000000    0.0000000000    0.0000000000    0.0000000000    0.0000000000    0.0000000000    0.0000000000    0.5950063479    0.5693327691    0.3069544365    0.1495274369    0.3475807589    0.6725913387    0.4911835238    1.0000000000    0.6088305826    0.4347580759    0.6556637043    0.6714628297    0.3560445761    0.3598532938    0.2708421498    0.6384539427    0.3729722105    0.1325998025    0.3149950628    0.2911553110    0.2951050924    0.0282127239    0.4233319227    0.4615601636    0.2031316124    0.5957116660    0.2793059670    0.2316264635 
  0   1   1   1   -0.6202804746
  1   1   1   1   -0.6941747573
  2   1   1   1   -0.5911542611
  3   1   1   1   -0.2702265372
  4   1   1   1   -0.8220064725
  5   1   1   1   -0.4115426106
  6   1   1   1   -1.0000000000
  7   1   1   1   -0.3344120820
  0   1   2   2    1.0000000000
  1   1   2   2    1.0000000000
  2   1   2   2    1.0000000000
  3   1   2   2    1.0000000000
  4   1   2   2    1.0000000000
  5   1   2   2    1.0000000000
  6   1   2   2    1.0000000000
  7   1   2   2    1.0000000000
  0   1   3   3    0.6202804746
  1   1   3   3    0.6941747573
  2   1   3   3    0.5911542611
  3   1   3   3    0.2702265372
  4   1   3   3    0.8220064725
  5   1   3   3    0.4115426106
  6   1   3   3    1.0000000000
  7   1   3   3    0.3344120820
  0   1   4   4   -1.0000000000
  1   1   4   4   -1.0000000000
  2   1   4   4   -1.0000000000
  3   1   4   4   -1.0000000000
  4   1   4   4   -1.0000000000
  5   1   4   4   -1.0000000000
  6   1   4   4   -1.0000000000
  7   1   4   4   -1.0000000000
  1   2   1   1    1.0000000000
  2   2   2   2    1.0000000000
  3   2   3   3    1.0000000000
  4   2   4   4    1.0000000000
  5   2   5   5    1.0000000000
  6   2   6   6    1.0000000000
  7   2   7   7    1.0000000000
  0   2   8   8   -1.0000000000
  1   2   8   8   -1.0000000000
  0   2   9   9   -1.0000000000
  2   2   9   9   -1.0000000000
  0   2  10  10   -1.0000000000
  3   2  10  10   -1.0000000000
  0   2  11  11   -1.0000000000
  4   2  11  11   -1.0000000000
  0   2  12  12   -1.0000000000
  5   2  12  12   -1.0000000000
  0   2  13  13   -1.0000000000
  6   2  13  13   -1.0000000000
  0   2  14  14   -1.0000000000
  7   2  14  14   -1.0000000000
  9   2  15  15    1.0000000000
 10   2  16  16    1.0000000000
 11   2  17  17    1.0000000000
 12   2  18  18    1.0000000000
 13   2  19  19    1.0000000000
 14   2  20  20    1.0000000000
 16   2  21  21    1.0000000000
 17   2  22  22    1.0000000000
 18   2  23  23    1.0000000000
 19   2  24  24    1.0000000000
 20   2  25  25    1.0000000000
 22   2  26  26    1.0000000000
 23   2  27  27    1.0000000000
 24   2  28  28    1.0000000000
 25   2  29  29    1.0000000000
 27   2  30  30    1.0000000000
 28   2  31  31    1.0000000000
 29   2  32  32    1.0000000000
 31   2  33  33    1.0000000000
 32   2  34  34    1.0000000000
 34   2  35  35    1.0000000000
  8   2  36  36   -1.0000000000
  0   2  36  36   -1.0000000000
 15   2  37  37   -1.0000000000
  0   2  37  37   -1.0000000000
 21   2  38  38   -1.0000000000
  0   2  38  38   -1.0000000000
 26   2  39  39   -1.0000000000
  0   2  39  39   -1.0000000000
 30   2  40  40   -1.0000000000
  0   2  40  40   -1.0000000000
 33   2  41  41   -1.0000000000
  0   2  41  41   -1.0000000000
 35   2  42  42   -1.0000000000
  0   2  42  42   -1.0000000000
  0   3   1   1   -1.0000000000
  1   3   1   2    1.0000000000
  2   3   1   3    1.0000000000
  3   3   1   4    1.0000000000
  4   3   1   5    1.0000000000
  5   3   1   6    1.0000000000
  6   3   1   7    1.0000000000
  7   3   1   8    1.0000000000
  8   3   2   2    1.0000000000
  9   3   2   3    1.0000000000
 10   3   2   4    1.0000000000
 11   3   2   5    1.0000000000
 12   3   2   6    1.0000000000
 13   3   2   7    1.0000000000
 14   3   2   8    1.0000000000
 15   3   3   3    1.0000000000
 16   3   3   4    1.0000000000
 17   3   3   5    1.0000000000
 18   3   3   6    1.0000000000
 19   3   3   7    1.0000000000
 20   3   3   8    1.0000000000
 21   3   4   4    1.0000000000
 22   3   4   5    1.0000000000
 23   3   4   6    1.0000000000
 24   3   4   7    1.0000000000
 25   3   4   8    1.0000000000
 26   3   5   5    1.0000000000
 27   3   5   6    1.0000000000
 28   3   5   7    1.0000000000
 29   3   5   8    1.0000000000
 30   3   6   6    1.0000000000
 31   3   6   7    1.0000000000
 32   3   6   8    1.0000000000
 33   3   7   7    1.0000000000
 34   3   7   8    1.0000000000
 35   3   8   8    1.0000000000
